60
1 0 33
2 0 22
2 1 31
3 0 48
3 1 13
3 2 22
4 0 39
4 1 51
4 2 51
4 3 1
5 0 37
5 1 49
5 2 47
5 3 20
5 4 43
6 0 7
6 1 38
6 2 40
6 3 19
6 4 43
6 5 43
7 0 37
7 1 19
7 2 52
7 3 18
7 4 11
7 5 35
7 6 50
8 0 51
8 1 56
8 2 29
8 3 6
8 4 25
8 5 31
8 6 52
8 7 54
9 0 42
9 1 3
9 2 14
9 3 55
9 4 14
9 5 42
9 6 50
9 7 4
9 8 31
10 0 15
10 1 42
10 2 40
10 3 43
10 4 28
10 5 26
10 6 56
10 7 50
10 8 35
10 9 7
11 0 25
11 1 36
11 2 26
11 3 24
11 4 46
11 5 39
11 6 22
11 7 57
11 8 57
11 9 45
11 10 24
12 0 55
12 1 5
12 2 39
12 3 3
12 4 14
12 5 8
12 6 32
12 7 8
12 8 52
12 9 12
12 10 22
12 11 56
13 0 43
13 1 33
13 2 41
13 3 2
13 4 55
13 5 16
13 6 18
13 7 20
13 8 17
13 9 28
13 10 3
13 11 23
13 12 27
14 0 16
14 1 50
14 2 50
14 3 22
14 4 45
14 5 41
14 6 43
14 7 25
14 8 40
14 9 31
14 10 41
14 11 19
14 12 52
14 13 11
15 0 30
15 1 47
15 2 27
15 3 31
15 4 10
15 5 14
15 6 18
15 7 5
15 8 48
15 9 10
15 10 16
15 11 57
15 12 40
15 13 10
15 14 30
16 0 23
16 1 43
16 2 36
16 3 21
16 4 23
16 5 30
16 6 12
16 7 55
16 8 44
16 9 35
16 10 8
16 11 31
16 12 40
16 13 37
16 14 48
16 15 7
17 0 4
17 1 40
17 2 7
17 3 42
17 4 40
17 5 32
17 6 11
17 7 43
17 8 1
17 9 9
17 10 16
17 11 44
17 12 49
17 13 14
17 14 25
17 15 15
17 16 15
18 0 7
18 1 52
18 2 42
18 3 44
18 4 46
18 5 10
18 6 11
18 7 18
18 8 6
18 9 23
18 10 22
18 11 44
18 12 30
18 13 5
18 14 46
18 15 54
18 16 45
18 17 7
19 0 23
19 1 14
19 2 33
19 3 19
19 4 48
19 5 34
19 6 42
19 7 29
19 8 29
19 9 11
19 10 55
19 11 20
19 12 27
19 13 9
19 14 45
19 15 41
19 16 25
19 17 21
19 18 19
20 0 24
20 1 9
20 2 40
20 3 17
20 4 13
20 5 50
20 6 44
20 7 51
20 8 36
20 9 51
20 10 40
20 11 54
20 12 8
20 13 8
20 14 38
20 15 12
20 16 29
20 17 25
20 18 5
20 19 34
21 0 29
21 1 54
21 2 49
21 3 8
21 4 6
21 5 41
21 6 51
21 7 31
21 8 8
21 9 41
21 10 44
21 11 40
21 12 47
21 13 17
21 14 40
21 15 49
21 16 37
21 17 14
21 18 28
21 19 53
21 20 36
22 0 5
22 1 37
22 2 13
22 3 49
22 4 41
22 5 39
22 6 45
22 7 54
22 8 3
22 9 14
22 10 45
22 11 29
22 12 2
22 13 37
22 14 3
22 15 5
22 16 13
22 17 46
22 18 21
22 19 14
22 20 44
22 21 1
23 0 9
23 1 14
23 2 35
23 3 35
23 4 53
23 5 56
23 6 8
23 7 43
23 8 12
23 9 56
23 10 29
23 11 42
23 12 19
23 13 32
23 14 39
23 15 40
23 16 43
23 17 28
23 18 33
23 19 33
23 20 12
23 21 41
23 22 4
24 0 27
24 1 44
24 2 8
24 3 31
24 4 5
24 5 19
24 6 20
24 7 30
24 8 49
24 9 30
24 10 48
24 11 26
24 12 40
24 13 49
24 14 7
24 15 22
24 16 38
24 17 31
24 18 45
24 19 36
24 20 52
24 21 19
24 22 24
24 23 15
25 0 54
25 1 26
25 2 53
25 3 13
25 4 35
25 5 23
25 6 31
25 7 20
25 8 40
25 9 57
25 10 48
25 11 24
25 12 57
25 13 16
25 14 17
25 15 24
25 16 5
25 17 49
25 18 19
25 19 14
25 20 22
25 21 2
25 22 46
25 23 44
25 24 53
26 0 39
26 1 25
26 2 53
26 3 22
26 4 31
26 5 44
26 6 5
26 7 46
26 8 51
26 9 13
26 10 9
26 11 13
26 12 14
26 13 50
26 14 6
26 15 26
26 16 45
26 17 45
26 18 34
26 19 13
26 20 37
26 21 43
26 22 10
26 23 45
26 24 18
26 25 16
27 0 19
27 1 29
27 2 35
27 3 52
27 4 47
27 5 7
27 6 9
27 7 5
27 8 44
27 9 49
27 10 14
27 11 23
27 12 54
27 13 7
27 14 31
27 15 49
27 16 18
27 17 49
27 18 50
27 19 23
27 20 7
27 21 48
27 22 19
27 23 52
27 24 26
27 25 6
27 26 17
28 0 26
28 1 37
28 2 35
28 3 50
28 4 22
28 5 41
28 6 39
28 7 18
28 8 41
28 9 35
28 10 56
28 11 2
28 12 43
28 13 6
28 14 50
28 15 30
28 16 48
28 17 35
28 18 25
28 19 5
28 20 4
28 21 13
28 22 49
28 23 18
28 24 47
28 25 36
28 26 15
28 27 44
29 0 42
29 1 54
29 2 53
29 3 10
29 4 31
29 5 28
29 6 5
29 7 8
29 8 44
29 9 52
29 10 33
29 11 12
29 12 13
29 13 28
29 14 38
29 15 41
29 16 42
29 17 18
29 18 2
29 19 54
29 20 37
29 21 37
29 22 20
29 23 15
29 24 10
29 25 44
29 26 41
29 27 20
29 28 13
30 0 5
30 1 41
30 2 54
30 3 35
30 4 20
30 5 12
30 6 12
30 7 45
30 8 2
30 9 50
30 10 9
30 11 13
30 12 34
30 13 7
30 14 29
30 15 22
30 16 51
30 17 1
30 18 40
30 19 47
30 20 53
30 21 20
30 22 26
30 23 38
30 24 5
30 25 38
30 26 34
30 27 44
30 28 54
30 29 23
31 0 19
31 1 16
31 2 51
31 3 1
31 4 11
31 5 6
31 6 53
31 7 57
31 8 1
31 9 53
31 10 1
31 11 4
31 12 8
31 13 29
31 14 29
31 15 47
31 16 19
31 17 24
31 18 8
31 19 54
31 20 22
31 21 35
31 22 28
31 23 27
31 24 4
31 25 17
31 26 17
31 27 47
31 28 10
31 29 7
31 30 37
32 0 32
32 1 49
32 2 32
32 3 12
32 4 8
32 5 9
32 6 10
32 7 50
32 8 7
32 9 43
32 10 51
32 11 22
32 12 27
32 13 14
32 14 38
32 15 12
32 16 4
32 17 29
32 18 5
32 19 12
32 20 32
32 21 45
32 22 45
32 23 15
32 24 56
32 25 41
32 26 48
32 27 43
32 28 2
32 29 27
32 30 19
32 31 30
33 0 50
33 1 37
33 2 47
33 3 43
33 4 27
33 5 29
33 6 28
33 7 57
33 8 28
33 9 46
33 10 8
33 11 5
33 12 49
33 13 25
33 14 14
33 15 45
33 16 23
33 17 18
33 18 55
33 19 28
33 20 32
33 21 25
33 22 19
33 23 1
33 24 38
33 25 57
33 26 41
33 27 47
33 28 41
33 29 6
33 30 42
33 31 35
33 32 17
34 0 16
34 1 17
34 2 32
34 3 5
34 4 43
34 5 42
34 6 30
34 7 20
34 8 38
34 9 49
34 10 47
34 11 16
34 12 11
34 13 37
34 14 43
34 15 45
34 16 18
34 17 41
34 18 33
34 19 27
34 20 3
34 21 53
34 22 50
34 23 48
34 24 56
34 25 43
34 26 27
34 27 37
34 28 35
34 29 5
34 30 16
34 31 22
34 32 54
34 33 53
35 0 42
35 1 2
35 2 2
35 3 49
35 4 49
35 5 37
35 6 37
35 7 20
35 8 47
35 9 19
35 10 17
35 11 18
35 12 42
35 13 50
35 14 5
35 15 24
35 16 6
35 17 56
35 18 21
35 19 9
35 20 2
35 21 34
35 22 52
35 23 28
35 24 10
35 25 17
35 26 12
35 27 51
35 28 49
35 29 29
35 30 18
35 31 40
35 32 18
35 33 38
35 34 51
36 0 23
36 1 26
36 2 9
36 3 39
36 4 14
36 5 40
36 6 25
36 7 35
36 8 7
36 9 16
36 10 21
36 11 3
36 12 45
36 13 24
36 14 7
36 15 53
36 16 44
36 17 32
36 18 2
36 19 5
36 20 28
36 21 32
36 22 7
36 23 36
36 24 39
36 25 33
36 26 9
36 27 14
36 28 53
36 29 56
36 30 46
36 31 2
36 32 40
36 33 25
36 34 54
36 35 7
37 0 45
37 1 5
37 2 8
37 3 54
37 4 33
37 5 37
37 6 8
37 7 10
37 8 30
37 9 27
37 10 36
37 11 48
37 12 2
37 13 9
37 14 39
37 15 36
37 16 30
37 17 18
37 18 47
37 19 51
37 20 16
37 21 11
37 22 16
37 23 33
37 24 26
37 25 49
37 26 9
37 27 10
37 28 13
37 29 31
37 30 29
37 31 29
37 32 9
37 33 35
37 34 22
37 35 39
37 36 9
38 0 34
38 1 41
38 2 51
38 3 28
38 4 30
38 5 11
38 6 31
38 7 55
38 8 57
38 9 36
38 10 11
38 11 53
38 12 49
38 13 35
38 14 1
38 15 6
38 16 51
38 17 28
38 18 54
38 19 2
38 20 17
38 21 29
38 22 41
38 23 50
38 24 45
38 25 6
38 26 19
38 27 38
38 28 30
38 29 43
38 30 41
38 31 29
38 32 9
38 33 24
38 34 41
38 35 7
38 36 54
38 37 45
39 0 38
39 1 35
39 2 25
39 3 49
39 4 45
39 5 51
39 6 13
39 7 33
39 8 51
39 9 23
39 10 57
39 11 21
39 12 29
39 13 33
39 14 38
39 15 1
39 16 37
39 17 10
39 18 21
39 19 3
39 20 47
39 21 9
39 22 29
39 23 47
39 24 6
39 25 47
39 26 23
39 27 38
39 28 10
39 29 33
39 30 3
39 31 49
39 32 39
39 33 22
39 34 49
39 35 34
39 36 34
39 37 39
39 38 43
40 0 48
40 1 57
40 2 34
40 3 44
40 4 45
40 5 46
40 6 21
40 7 7
40 8 30
40 9 11
40 10 40
40 11 16
40 12 1
40 13 46
40 14 11
40 15 29
40 16 23
40 17 55
40 18 5
40 19 14
40 20 17
40 21 28
40 22 9
40 23 45
40 24 39
40 25 48
40 26 15
40 27 23
40 28 29
40 29 40
40 30 57
40 31 52
40 32 52
40 33 13
40 34 30
40 35 13
40 36 6
40 37 25
40 38 26
40 39 22
41 0 46
41 1 42
41 2 11
41 3 13
41 4 13
41 5 19
41 6 21
41 7 28
41 8 44
41 9 8
41 10 18
41 11 12
41 12 46
41 13 20
41 14 27
41 15 34
41 16 36
41 17 46
41 18 6
41 19 44
41 20 55
41 21 52
41 22 8
41 23 6
41 24 57
41 25 37
41 26 43
41 27 47
41 28 30
41 29 54
41 30 50
41 31 31
41 32 51
41 33 27
41 34 54
41 35 21
41 36 48
41 37 35
41 38 33
41 39 13
41 40 5
42 0 5
42 1 52
42 2 11
42 3 39
42 4 47
42 5 44
42 6 8
42 7 24
42 8 31
42 9 55
42 10 1
42 11 26
42 12 27
42 13 25
42 14 23
42 15 11
42 16 14
42 17 46
42 18 23
42 19 21
42 20 31
42 21 52
42 22 45
42 23 18
42 24 18
42 25 5
42 26 6
42 27 9
42 28 39
42 29 19
42 30 1
42 31 29
42 32 34
42 33 49
42 34 19
42 35 36
42 36 55
42 37 11
42 38 7
42 39 27
42 40 2
42 41 20
43 0 17
43 1 39
43 2 54
43 3 23
43 4 19
43 5 48
43 6 46
43 7 28
43 8 44
43 9 17
43 10 49
43 11 23
43 12 14
43 13 21
43 14 31
43 15 46
43 16 46
43 17 53
43 18 16
43 19 2
43 20 34
43 21 34
43 22 32
43 23 6
43 24 37
43 25 50
43 26 41
43 27 8
43 28 2
43 29 3
43 30 7
43 31 27
43 32 40
43 33 2
43 34 51
43 35 5
43 36 40
43 37 46
43 38 32
43 39 10
43 40 36
43 41 39
43 42 48
44 0 4
44 1 44
44 2 24
44 3 39
44 4 39
44 5 39
44 6 38
44 7 30
44 8 10
44 9 45
44 10 32
44 11 46
44 12 42
44 13 54
44 14 25
44 15 37
44 16 24
44 17 56
44 18 41
44 19 11
44 20 33
44 21 56
44 22 39
44 23 43
44 24 19
44 25 19
44 26 39
44 27 6
44 28 1
44 29 20
44 30 46
44 31 22
44 32 39
44 33 37
44 34 15
44 35 15
44 36 53
44 37 29
44 38 49
44 39 46
44 40 44
44 41 20
44 42 30
44 43 49
45 0 21
45 1 31
45 2 26
45 3 43
45 4 36
45 5 24
45 6 28
45 7 5
45 8 10
45 9 20
45 10 2
45 11 30
45 12 4
45 13 50
45 14 10
45 15 5
45 16 20
45 17 37
45 18 10
45 19 13
45 20 27
45 21 24
45 22 12
45 23 32
45 24 40
45 25 22
45 26 19
45 27 28
45 28 27
45 29 43
45 30 47
45 31 40
45 32 18
45 33 3
45 34 22
45 35 11
45 36 24
45 37 54
45 38 9
45 39 43
45 40 22
45 41 16
45 42 49
45 43 35
45 44 32
46 0 32
46 1 19
46 2 2
46 3 50
46 4 26
46 5 46
46 6 40
46 7 18
46 8 40
46 9 35
46 10 25
46 11 22
46 12 34
46 13 25
46 14 42
46 15 57
46 16 53
46 17 14
46 18 32
46 19 55
46 20 9
46 21 22
46 22 8
46 23 41
46 24 6
46 25 32
46 26 7
46 27 9
46 28 15
46 29 40
46 30 36
46 31 43
46 32 57
46 33 45
46 34 4
46 35 53
46 36 39
46 37 30
46 38 27
46 39 3
46 40 53
46 41 52
46 42 5
46 43 47
46 44 17
46 45 24
47 0 13
47 1 18
47 2 7
47 3 21
47 4 41
47 5 57
47 6 26
47 7 29
47 8 27
47 9 6
47 10 8
47 11 53
47 12 48
47 13 34
47 14 36
47 15 4
47 16 4
47 17 26
47 18 54
47 19 8
47 20 45
47 21 50
47 22 57
47 23 11
47 24 21
47 25 43
47 26 5
47 27 5
47 28 46
47 29 39
47 30 22
47 31 38
47 32 1
47 33 55
47 34 33
47 35 49
47 36 15
47 37 41
47 38 8
47 39 57
47 40 38
47 41 57
47 42 46
47 43 3
47 44 6
47 45 12
47 46 15
48 0 44
48 1 13
48 2 43
48 3 7
48 4 7
48 5 56
48 6 16
48 7 34
48 8 2
48 9 10
48 10 4
48 11 36
48 12 50
48 13 46
48 14 37
48 15 13
48 16 54
48 17 17
48 18 17
48 19 23
48 20 37
48 21 49
48 22 17
48 23 47
48 24 35
48 25 26
48 26 1
48 27 6
48 28 36
48 29 18
48 30 13
48 31 25
48 32 10
48 33 49
48 34 9
48 35 55
48 36 56
48 37 25
48 38 12
48 39 1
48 40 52
48 41 20
48 42 21
48 43 5
48 44 3
48 45 57
48 46 44
48 47 25
49 0 44
49 1 9
49 2 48
49 3 17
49 4 19
49 5 34
49 6 2
49 7 22
49 8 51
49 9 43
49 10 11
49 11 7
49 12 33
49 13 3
49 14 46
49 15 33
49 16 26
49 17 4
49 18 55
49 19 22
49 20 40
49 21 38
49 22 32
49 23 48
49 24 33
49 25 47
49 26 11
49 27 1
49 28 39
49 29 41
49 30 42
49 31 39
49 32 36
49 33 19
49 34 29
49 35 21
49 36 19
49 37 38
49 38 42
49 39 37
49 40 24
49 41 15
49 42 18
49 43 43
49 44 14
49 45 38
49 46 25
49 47 2
49 48 55
50 0 57
50 1 29
50 2 34
50 3 17
50 4 46
50 5 18
50 6 33
50 7 2
50 8 50
50 9 22
50 10 36
50 11 27
50 12 34
50 13 4
50 14 27
50 15 14
50 16 5
50 17 50
50 18 49
50 19 19
50 20 15
50 21 49
50 22 12
50 23 6
50 24 24
50 25 9
50 26 31
50 27 42
50 28 11
50 29 5
50 30 51
50 31 24
50 32 37
50 33 28
50 34 50
50 35 5
50 36 14
50 37 46
50 38 23
50 39 38
50 40 43
50 41 27
50 42 40
50 43 56
50 44 14
50 45 31
50 46 51
50 47 52
50 48 51
50 49 31
51 0 1
51 1 23
51 2 14
51 3 53
51 4 12
51 5 27
51 6 5
51 7 45
51 8 24
51 9 9
51 10 3
51 11 35
51 12 41
51 13 13
51 14 39
51 15 9
51 16 19
51 17 1
51 18 31
51 19 57
51 20 51
51 21 40
51 22 35
51 23 50
51 24 16
51 25 56
51 26 6
51 27 22
51 28 25
51 29 42
51 30 15
51 31 17
51 32 45
51 33 22
51 34 57
51 35 41
51 36 10
51 37 54
51 38 19
51 39 49
51 40 28
51 41 55
51 42 51
51 43 52
51 44 20
51 45 44
51 46 11
51 47 41
51 48 42
51 49 50
51 50 6
52 0 47
52 1 50
52 2 21
52 3 10
52 4 17
52 5 27
52 6 38
52 7 11
52 8 30
52 9 43
52 10 54
52 11 31
52 12 28
52 13 38
52 14 6
52 15 12
52 16 32
52 17 38
52 18 8
52 19 15
52 20 49
52 21 46
52 22 10
52 23 19
52 24 18
52 25 42
52 26 40
52 27 24
52 28 28
52 29 12
52 30 36
52 31 4
52 32 20
52 33 10
52 34 11
52 35 32
52 36 49
52 37 15
52 38 53
52 39 52
52 40 56
52 41 27
52 42 9
52 43 35
52 44 16
52 45 23
52 46 42
52 47 35
52 48 38
52 49 13
52 50 6
52 51 41
53 0 23
53 1 12
53 2 38
53 3 41
53 4 46
53 5 34
53 6 9
53 7 36
53 8 15
53 9 6
53 10 39
53 11 55
53 12 13
53 13 24
53 14 20
53 15 6
53 16 28
53 17 13
53 18 41
53 19 47
53 20 2
53 21 51
53 22 36
53 23 46
53 24 54
53 25 49
53 26 57
53 27 44
53 28 21
53 29 57
53 30 38
53 31 11
53 32 31
53 33 1
53 34 28
53 35 57
53 36 18
53 37 17
53 38 6
53 39 50
53 40 34
53 41 42
53 42 9
53 43 36
53 44 45
53 45 45
53 46 48
53 47 5
53 48 9
53 49 24
53 50 14
53 51 22
53 52 33
54 0 53
54 1 34
54 2 32
54 3 5
54 4 42
54 5 26
54 6 52
54 7 22
54 8 35
54 9 35
54 10 25
54 11 2
54 12 50
54 13 6
54 14 22
54 15 57
54 16 36
54 17 36
54 18 39
54 19 1
54 20 9
54 21 9
54 22 48
54 23 27
54 24 46
54 25 50
54 26 29
54 27 11
54 28 1
54 29 18
54 30 46
54 31 21
54 32 38
54 33 31
54 34 15
54 35 1
54 36 24
54 37 49
54 38 38
54 39 8
54 40 55
54 41 6
54 42 24
54 43 31
54 44 30
54 45 41
54 46 14
54 47 31
54 48 32
54 49 8
54 50 57
54 51 22
54 52 56
54 53 7
55 0 14
55 1 1
55 2 7
55 3 5
55 4 52
55 5 30
55 6 14
55 7 32
55 8 44
55 9 18
55 10 20
55 11 24
55 12 57
55 13 53
55 14 38
55 15 21
55 16 47
55 17 3
55 18 54
55 19 48
55 20 56
55 21 5
55 22 32
55 23 28
55 24 46
55 25 23
55 26 57
55 27 42
55 28 45
55 29 6
55 30 5
55 31 1
55 32 1
55 33 46
55 34 19
55 35 47
55 36 7
55 37 55
55 38 2
55 39 45
55 40 14
55 41 44
55 42 4
55 43 1
55 44 23
55 45 16
55 46 26
55 47 47
55 48 9
55 49 43
55 50 13
55 51 22
55 52 36
55 53 8
55 54 14
56 0 50
56 1 54
56 2 8
56 3 36
56 4 25
56 5 54
56 6 26
56 7 28
56 8 36
56 9 42
56 10 5
56 11 39
56 12 26
56 13 6
56 14 31
56 15 51
56 16 9
56 17 15
56 18 45
56 19 30
56 20 10
56 21 18
56 22 1
56 23 43
56 24 6
56 25 14
56 26 26
56 27 7
56 28 28
56 29 22
56 30 3
56 31 13
56 32 52
56 33 2
56 34 35
56 35 38
56 36 29
56 37 4
56 38 51
56 39 4
56 40 54
56 41 7
56 42 17
56 43 52
56 44 37
56 45 35
56 46 41
56 47 35
56 48 34
56 49 39
56 50 24
56 51 49
56 52 6
56 53 41
56 54 49
56 55 18
57 0 16
57 1 6
57 2 8
57 3 14
57 4 16
57 5 30
57 6 14
57 7 24
57 8 24
57 9 36
57 10 23
57 11 34
57 12 37
57 13 9
57 14 13
57 15 21
57 16 16
57 17 43
57 18 19
57 19 2
57 20 34
57 21 7
57 22 40
57 23 7
57 24 55
57 25 56
57 26 57
57 27 22
57 28 36
57 29 22
57 30 34
57 31 23
57 32 2
57 33 10
57 34 53
57 35 22
57 36 36
57 37 21
57 38 30
57 39 40
57 40 21
57 41 19
57 42 53
57 43 2
57 44 24
57 45 26
57 46 1
57 47 19
57 48 40
57 49 1
57 50 48
57 51 3
57 52 22
57 53 27
57 54 42
57 55 13
57 56 23
58 0 2
58 1 25
58 2 26
58 3 31
58 4 41
58 5 20
58 6 36
58 7 50
58 8 51
58 9 16
58 10 15
58 11 22
58 12 2
58 13 23
58 14 42
58 15 8
58 16 29
58 17 49
58 18 27
58 19 21
58 20 14
58 21 46
58 22 11
58 23 12
58 24 41
58 25 25
58 26 47
58 27 13
58 28 43
58 29 21
58 30 22
58 31 33
58 32 53
58 33 25
58 34 7
58 35 45
58 36 31
58 37 50
58 38 41
58 39 21
58 40 36
58 41 20
58 42 18
58 43 38
58 44 13
58 45 15
58 46 43
58 47 44
58 48 6
58 49 18
58 50 57
58 51 24
58 52 33
58 53 21
58 54 6
58 55 5
58 56 54
58 57 6
59 0 45
59 1 41
59 2 3
59 3 40
59 4 28
59 5 57
59 6 39
59 7 49
59 8 57
59 9 47
59 10 50
59 11 47
59 12 16
59 13 32
59 14 24
59 15 13
59 16 25
59 17 8
59 18 5
59 19 44
59 20 15
59 21 17
59 22 26
59 23 11
59 24 12
59 25 8
59 26 5
59 27 4
59 28 5
59 29 6
59 30 47
59 31 22
59 32 44
59 33 9
59 34 11
59 35 43
59 36 41
59 37 14
59 38 5
59 39 55
59 40 4
59 41 49
59 42 38
59 43 4
59 44 35
59 45 4
59 46 40
59 47 13
59 48 47
59 49 19
59 50 50
59 51 6
59 52 55
59 53 55
59 54 55
59 55 25
59 56 50
59 57 54
59 58 45
